\ Model subproblem_model
\ LP format - for model browsing. Use MPS format to capture full model detail.
Maximize
  _eta
Subject To
 R0: _z[291450206011012] + _z[290970102001050] <= 1
 R1: _z[291450206011012] + _z[290970102001050] <= 1
 R2: _z[291450206011012] + _z[290970112004069] + _z[290970110005024] <= 2
 R3: _z[291450206011012] + _z[290970112004069] + _z[290970106004001] <= 2
 R4: _z[291450206011012] + _z[290970112004069] + _z[290970108003014] <= 2
 R5: _z[291450206011012] + _z[290970112004069] + _z[290970106003025] <= 2
 R6: _z[291450206011012] + _z[290970112004069] + _z[290970101001022] <= 2
 R7: _z[291450206011012] + _z[290970112004069] + _z[290970104003071] <= 2
 R8: _z[291450206011012] + _z[290970109002051] + _z[290970104003071] <= 2
 R9: _z[291450206011012] + _z[290970110005024] + _z[290970106004001] <= 2
 R10: _z[291450206011012] + _z[290970110005024] + _z[290970106003025] <= 2
 R11: _z[291450206011012] + _z[290970110005024] + _z[290970104003071] <= 2
 R12: _z[291450206011012] + _z[290970108003014] + _z[290970104003071] <= 2
 R13: _z[291450206011012] + _z[290970101001022] + _z[290970106004001] <= 2
 R14: _z[291450206011012] + _z[290970101001022] + _z[290970106003025] <= 2
 R15: _z[291450206011012] + _z[290970101001022] + _z[290970104003071] <= 2
 R16: _z[291450206011012] + _z[290970106004001] + _z[290970104003071] <= 2
 R17: _z[291450206011012] + _z[290970106003025] + _z[290970104003071] <= 2
 R18: _z[291450206011012] + _z[290970102001050] + _z[290970104003071] <= 2
 R19: _z[290970112004069] + _z[290970109002051] + _z[290970110005024] <= 2
 R20: _z[290970112004069] + _z[290970109002051] + _z[290970106004001] <= 2
 R21: _z[290970112004069] + _z[290970109002051] + _z[290970108003014] <= 2
 R22: _z[290970112004069] + _z[290970109002051] + _z[290970106003025] <= 2
 R23: _z[290970112004069] + _z[290970109002051] + _z[290970102001050] <= 2
 R24: _z[290970112004069] + _z[290970109002051] + _z[290970101001022] <= 2
 R25: _z[290970112004069] + _z[290970109002051] + _z[290970104003071] <= 2
 R26: _z[290970112004069] + _z[290970110005024] + _z[290970102001050] <= 2
 R27: _z[290970112004069] + _z[290970110005024] + _z[290970101001022] <= 2
 R28: _z[290970112004069] + _z[290970108003014] + _z[290970102001050] <= 2
 R29: _z[290970112004069] + _z[290970108003014] + _z[290970101001022] <= 2
 R30: _z[290970112004069] + _z[290970108003014] + _z[290970104003071] <= 2
 R31: _z[290970112004069] + _z[290970101001022] + _z[290970106004001] <= 2
 R32: _z[290970112004069] + _z[290970101001022] + _z[290970106003025] <= 2
 R33: _z[290970112004069] + _z[290970101001022] + _z[290970102001050] <= 2
 R34: _z[290970112004069] + _z[290970101001022] + _z[290970104003071] <= 2
 R35: _z[290970112004069] + _z[290970106004001] + _z[290970102001050] <= 2
 R36: _z[290970112004069] + _z[290970106003025] + _z[290970102001050] <= 2
 R37: _z[290970112004069] + _z[290970102001050] + _z[290970104003071] <= 2
 R38: _z[290970109002051] + _z[290970110005024] + _z[290970106003025] <= 2
 R39: _z[290970109002051] + _z[290970110005024] + _z[290970104003071] <= 2
 R40: _z[290970109002051] + _z[290970101001022] + _z[290970106004001] <= 2
 R41: _z[290970109002051] + _z[290970101001022] + _z[290970106003025] <= 2
 R42: _z[290970109002051] + _z[290970101001022] + _z[290970104003071] <= 2
 R43: _z[290970109002051] + _z[290970106004001] + _z[290970102001050] <= 2
 R44: _z[290970109002051] + _z[290970106004001] + _z[290970104003071] <= 2
 R45: _z[290970109002051] + _z[290970106003025] + _z[290970102001050] <= 2
 R46: _z[290970109002051] + _z[290970102001050] + _z[290970104003071] <= 2
 R47: _z[290970110005024] + _z[290970101001022] + _z[290970106004001] <= 2
 R48: _z[290970110005024] + _z[290970101001022] + _z[290970106003025] <= 2
 R49: _z[290970110005024] + _z[290970101001022] + _z[290970104003071] <= 2
 R50: _z[290970110005024] + _z[290970106004001] + _z[290970102001050] <= 2
 R51: _z[290970110005024] + _z[290970106003025] + _z[290970102001050] <= 2
 R52: _z[290970110005024] + _z[290970102001050] + _z[290970104003071] <= 2
 R53: _z[290970108003014] + _z[290970101001022] + _z[290970106003025] <= 2
 R54: _z[290970108003014] + _z[290970101001022] + _z[290970104003071] <= 2
 R55: _z[290970108003014] + _z[290970106003025] + _z[290970102001050] <= 2
 R56: _z[290970108003014] + _z[290970102001050] + _z[290970104003071] <= 2
 R57: _z[290970101001022] + _z[290970106004001] + _z[290970104003071] <= 2
 R58: _z[290970101001022] + _z[290970106003025] + _z[290970102001050] <= 2
 R59: _z[290970101001022] + _z[290970106003025] + _z[290970104003071] <= 2
 R60: _z[290970101001022] + _z[290970102001050] + _z[290970104003071] <= 2
 R61: _z[290970106004001] + _z[290970102001050] + _z[290970104003071] <= 2
 R62: _z[290970106003025] + _z[290970102001050] + _z[290970104003071] <= 2
 R63: _eta - 32 _z[291450206011012] - 4 _z[290970112004069]
   - 19 _z[290970109002051] - 30 _z[290970110005024]
   - 29 _z[290970108003014] - 9 _z[290970101001022] - 6 _z[290970106004001]
   - 9 _z[290970106003025] - 16 _z[290970102001050]
   - 25 _z[290970104003071] <= 0
 qc0: - v_x[291450206011012] + head_x + [ - t[291450206011012] * head_x
   + t[291450206011012] * tail_x ] = -5162.78
 qc1: - v_y[291450206011012] + head_y + [ - t[291450206011012] * head_y
   + t[291450206011012] * tail_y ] = 2556.121
 qc2: 55.58233813992405 _z[291450206011012] + [ v_x[291450206011012] ^2
   + v_y[291450206011012] ^2 ] <= 55.72296313992405
 qc3: - v_x[290970112004069] + head_x + [ - t[290970112004069] * head_x
   + t[290970112004069] * tail_x ] = -5162.552
 qc4: - v_y[290970112004069] + head_y + [ - t[290970112004069] * head_y
   + t[290970112004069] * tail_y ] = 2559.405
 qc5: 41.59369276226538 _z[290970112004069] + [ v_x[290970112004069] ^2
   + v_y[290970112004069] ^2 ] <= 41.73431776226538
 qc6: - v_x[290970109002051] + head_x + [ - t[290970109002051] * head_x
   + t[290970109002051] * tail_x ] = -5162.502
 qc7: - v_y[290970109002051] + head_y + [ - t[290970109002051] * head_y
   + t[290970109002051] * tail_y ] = 2557.026
 qc8: 44.49747636116756 _z[290970109002051] + [ v_x[290970109002051] ^2
   + v_y[290970109002051] ^2 ] <= 44.63810136116756
 qc9: - v_x[290970110005024] + head_x + [ - t[290970110005024] * head_x
   + t[290970110005024] * tail_x ] = -5160.906
 qc10: - v_y[290970110005024] + head_y + [ - t[290970110005024] * head_y
   + t[290970110005024] * tail_y ] = 2558.444
 qc11: 20.64740490205319 _z[290970110005024] + [ v_x[290970110005024] ^2
   + v_y[290970110005024] ^2 ] <= 20.78802990205319
 qc12: - v_x[290970108003014] + head_x + [ - t[290970108003014] * head_x
   + t[290970108003014] * tail_x ] = -5160.578
 qc13: - v_y[290970108003014] + head_y + [ - t[290970108003014] * head_y
   + t[290970108003014] * tail_y ] = 2557.849
 qc14: 21.68252400523987 _z[290970108003014] + [ v_x[290970108003014] ^2
   + v_y[290970108003014] ^2 ] <= 21.82314900523987
 qc15: - v_x[290970101001022] + head_x + [ - t[290970101001022] * head_x
   + t[290970101001022] * tail_x ] = -5160.099
 qc16: - v_y[290970101001022] + head_y + [ - t[290970101001022] * head_y
   + t[290970101001022] * tail_y ] = 2559.356
 qc17: 20.80414525097263 _z[290970101001022] + [ v_x[290970101001022] ^2
   + v_y[290970101001022] ^2 ] <= 20.94477025097263
 qc18: - v_x[290970106004001] + head_x + [ - t[290970106004001] * head_x
   + t[290970106004001] * tail_x ] = -5160.029
 qc19: - v_y[290970106004001] + head_y + [ - t[290970106004001] * head_y
   + t[290970106004001] * tail_y ] = 2558.103
 qc20: 17.56628000790461 _z[290970106004001] + [ v_x[290970106004001] ^2
   + v_y[290970106004001] ^2 ] <= 17.70690500790461
 qc21: - v_x[290970106003025] + head_x + [ - t[290970106003025] * head_x
   + t[290970106003025] * tail_x ] = -5159.587
 qc22: - v_y[290970106003025] + head_y + [ - t[290970106003025] * head_y
   + t[290970106003025] * tail_y ] = 2557.829
 qc23: 22.11330320218178 _z[290970106003025] + [ v_x[290970106003025] ^2
   + v_y[290970106003025] ^2 ] <= 22.25392820218178
 qc24: - v_x[290970102001050] + head_x + [ - t[290970102001050] * head_x
   + t[290970102001050] * tail_x ] = -5158.295
 qc25: - v_y[290970102001050] + head_y + [ - t[290970102001050] * head_y
   + t[290970102001050] * tail_y ] = 2560.772
 qc26: 46.59292138939446 _z[290970102001050] + [ v_x[290970102001050] ^2
   + v_y[290970102001050] ^2 ] <= 46.73354638939446
 qc27: - v_x[290970104003071] + head_x + [ - t[290970104003071] * head_x
   + t[290970104003071] * tail_x ] = -5157.429
 qc28: - v_y[290970104003071] + head_y + [ - t[290970104003071] * head_y
   + t[290970104003071] * tail_y ] = 2557.482
 qc29: 44.16842950731765 _z[290970104003071] + [ v_x[290970104003071] ^2
   + v_y[290970104003071] ^2 ] <= 44.30905450731765
 qc30: [ head_x ^2 - 2 head_x * tail_x + head_y ^2 - 2 head_y * tail_y
   + tail_x ^2 + tail_y ^2 ] <= 25
Bounds
 _eta free
 t[291450206011012] <= 1
 t[290970112004069] <= 1
 t[290970109002051] <= 1
 t[290970110005024] <= 1
 t[290970108003014] <= 1
 t[290970101001022] <= 1
 t[290970106004001] <= 1
 t[290970106003025] <= 1
 t[290970102001050] <= 1
 t[290970104003071] <= 1
 v_x[291450206011012] free
 v_x[290970112004069] free
 v_x[290970109002051] free
 v_x[290970110005024] free
 v_x[290970108003014] free
 v_x[290970101001022] free
 v_x[290970106004001] free
 v_x[290970106003025] free
 v_x[290970102001050] free
 v_x[290970104003071] free
 v_y[291450206011012] free
 v_y[290970112004069] free
 v_y[290970109002051] free
 v_y[290970110005024] free
 v_y[290970108003014] free
 v_y[290970101001022] free
 v_y[290970106004001] free
 v_y[290970106003025] free
 v_y[290970102001050] free
 v_y[290970104003071] free
 head_x free
 head_y free
 tail_x free
 tail_y free
Binaries
 _z[291450206011012] _z[290970112004069] _z[290970109002051]
 _z[290970110005024] _z[290970108003014] _z[290970101001022]
 _z[290970106004001] _z[290970106003025] _z[290970102001050]
 _z[290970104003071]
End
